Route #1: 1 41 22 48 15 34 2 1 
Route #2: 1 28 30 35 12 17 1 
Route #3: 1 23 18 39 32 44 16 1 
Route #4: 1 1 42 43 49 6 33 1 
Route #5: 1 29 5 20 13 27 7 1 
Route #6: 1 45 37 36 47 21 1 
Route #7: 1 4 46 19 26 1 
Route #8: 1 24 9 40 3 1 
Route #9: 1 8 11 10 25 1 
Route #10: 1 14 38 31 1 

Cost 1104.97
Time 0.5538


 * Another infos *

 Iterations: 50 Time: 0.5538 sec - 0.0092 min - 0.0002 horas
0.0000 h 0.0092 min
Problem dimension: 50
